GLPSOL--GLPK LP/MIP Solver 5.0
Parameter(s) specified in the command line:
 --lp ../modeles/2_334.lp --log 2_334.log
Reading problem data from '../modeles/2_334.lp'...
677 rows, 1340 columns, 4682 non-zeros
668 integer variables, all of which are binary
2025 lines were read
GLPK Integer Optimizer 5.0
677 rows, 1340 columns, 4682 non-zeros
668 integer variables, all of which are binary
Preprocessing...
660 constraint coefficient(s) were reduced
677 rows, 1338 columns, 4680 non-zeros
668 integer variables, all of which are binary
Scaling...
 A: min|aij| =  1.434e-04  max|aij| =  4.000e+00  ratio =  2.789e+04
GM: min|aij| =  7.738e-02  max|aij| =  1.292e+01  ratio =  1.670e+02
EQ: min|aij| =  5.988e-03  max|aij| =  1.000e+00  ratio =  1.670e+02
2N: min|aij| =  4.590e-03  max|aij| =  1.757e+00  ratio =  3.827e+02
Constructing initial basis...
Size of triangular part is 677
Solving LP relaxation...
GLPK Simplex Optimizer 5.0
677 rows, 1338 columns, 4680 non-zeros
      0: obj =   4.000000000e+00 inf =   9.500e+00 (5)
     41: obj =   4.682462840e-01 inf =   0.000e+00 (0)
*   158: obj =  -1.414205203e+00 inf =   2.247e-16 (0)
OPTIMAL LP SOLUTION FOUND
Integer optimization begins...
Long-step dual simplex will be used
+   158: mip =     not found yet >=              -inf        (1; 0)
+   213: >>>>>  -1.414205203e+00 >=  -1.414205203e+00   0.0% (56; 0)
+   213: mip =  -1.414205203e+00 >=     tree is empty   0.0% (0; 111)
INTEGER OPTIMAL SOLUTION FOUND
Time used:   0.1 secs
Memory used: 2.0 Mb (2072888 bytes)
